p cnf 21 67
c p weight -7 1 0
c p weight 7 -1 0
c p weight 11 6.12323399573676603586882014729198302312846062338790031898128063403419218957424163818359375E-17 0
c p weight -11 1 0
c p weight 12 1 0
c p weight -12 1 0
c p weight -9 1 0
c p weight 9 -1 0
c p weight -13 1 0
c p weight 13 -1 0
c p weight -15 1 0
c p weight 15 -1 0
c p weight -18 1 0
c p weight 18 -1 0
c p weight 21 0.5 0
c p weight -21 1 0
21 0
-5 0
-3 0
-1 0
-7 5 0
-7 6 0
7 -5 -6 0
8 5 -6 0
8 -5 6 0
-8 5 6 0
-8 -5 -6 0
-9 10 0
-9 8 0
-9 -5 0
9 -10 5 -8 0
10 -5 8 0
-10 5 8 0
-11 8 0
10 -11 -5 0
-10 -11 5 0
10 11 5 -8 0
-10 11 -5 -8 0
-12 8 0
10 -12 5 0
-10 -12 -5 0
10 12 -5 -8 0
-10 12 5 -8 0
-13 10 0
-13 8 0
13 -10 -8 0
14 10 -8 0
14 -10 8 0
-14 10 8 0
-14 -10 -8 0
-15 10 0
-15 4 0
-15 3 -14 0
-15 -3 14 0
15 -10 3 14 -4 0
15 -10 -3 -14 -4 0
17 10 -3 0
17 -10 3 0
-17 10 3 0
-17 -10 -3 0
16 14 -4 0
16 -14 4 0
-16 14 4 0
-16 -14 -4 0
-18 17 0
-18 2 0
-18 1 -4 0
-18 -1 4 0
18 -17 1 4 -2 0
18 -17 -1 -4 -2 0
20 17 -1 0
20 -17 1 0
-20 17 1 0
-20 -17 -1 0
19 4 -2 0
19 -4 2 0
-19 4 2 0
-19 -4 -2 0
-20 0
-17 0
-19 0
-10 0
-16 0
